Optimal - objective value 11653.00000000
      3 x_0_3                    1                       0
      5 x_1_0                    1                       0
     12 x_2_2                    1                       0
     16 x_3_1                    1                       0
     24 x_4_4                    1                       0
     73 y_0_3_1_0                1                    2624
     79 y_0_3_2_2                1                     488
     82 y_0_3_3_1                1                     162
     88 y_0_3_4_4                1                     672
    106 y_1_0_2_2                1                     912
    109 y_1_0_3_1                1                    1155
    116 y_1_0_4_4                1                     540
    182 y_2_2_3_1                1                     968
    188 y_2_2_4_4                1                    2256
    212 y_3_1_4_4                1                    1876
